
  22   10
  10   10   10   10   10   10   10   10   10   10

   0   0   0   0   0   0   0   0   0   0   0   2 2 4 
   7   0  10   0   0   0   0   0   0   0   0   2 6 3 
   8   0   0   0   0   0   0   0   0  10   0   2 8 5 
   9   0   0   0   0   0  10   0   0   0   0   2 8 5 
   9   0   0   0   0   0   0   0   0   0  10   2 10 7 
   7   0   0   0  10   0   0   0   0   0   0   2 10 7 
   8   0   0   0   0   0  10   0   0   0   0   4 20 17 16 9 
   8   0   0   0   0  10   0   0   0   0   0   3 19 12 11 
   1   0   0   0   0   0   0   0   0  10   0   5 21 19 18 13 12 
   6   0   0   0   0   0  10   0   0   0   0   5 20 18 15 14 12 
   1   0   0   0   0   0   0   0  10   0   0   5 17 16 15 14 13 
   8   0  10   0   0   0   0   0   0   0   0   1 22
   5   0   0   0  10   0   0   0   0   0   0   1 22
   3   0   0  10   0   0   0   0   0   0   0   1 22
   6   0   0   0   0   0   0   0   0  10   0   1 22
   8   0   0  10   0   0   0   0   0   0   0   1 22
   6   0   0   0  10   0   0   0   0   0   0   1 22
   2   0   0   0   0   0  10   0   0   0   0   1 22
   4   0  10   0   0   0   0   0   0   0   0   1 22
   4   0   0   0   0   0   0   0  10   0   0   1 22
   5   0  10   0   0   0   0   0   0   0   0   1 22
   0   0   0   0   0   0   0   0   0   0   0   0 
